(synth-fun lemma ((x Int) (y Int) (z Int)) Bool

           ((Start Bool) (Loc Int) (LocLeaf Int))

           ((Start Bool (
                   (=> Start Start)
                   (or Start Start)
                   (lseg Loc Loc)))
           (Loc Int (LocLeaf))
           (LocLeaf Int (x y z)))

)

(synth-fun rswitch () Int

           ((Start Int))
           ((Start Int (0)))

)
